% seed = 0

mint = 19;
% maxt = 70;

nActs = 32;
dur = [0,1,3,2,3,2,4,2,2,3,2,2,1,3,2,3,1,2,1,4,2,2,3,5,3,1,3,2,3,2,1,0];

nSkills = 15;
sreq = [| 0,0,0,0,0,0,0,0,0,0,0,0,0,0,0,
	| 0,0,0,0,0,0,0,0,0,0,1,0,0,0,0,
	| 0,0,0,0,1,0,0,0,0,0,2,0,0,0,0,
	| 0,0,0,0,0,0,0,0,0,0,0,0,0,1,0,
	| 0,0,0,0,0,0,0,0,2,0,1,0,0,0,0,
	| 0,0,1,0,0,0,0,1,0,0,0,1,0,0,0,
	| 0,1,0,0,0,0,0,0,0,0,0,0,0,2,0,
	| 0,0,0,0,0,0,0,0,0,0,0,1,0,0,1,
	| 0,0,1,0,0,2,0,0,0,0,1,0,0,1,0,
	| 0,0,0,0,1,0,0,0,0,0,0,0,0,0,0,
	| 0,0,0,0,0,0,0,0,0,0,0,1,0,0,0,
	| 0,0,0,0,0,2,0,0,0,0,0,0,0,0,0,
	| 0,0,2,0,0,0,0,0,0,0,0,0,0,0,0,
	| 0,0,0,0,1,0,0,0,0,0,0,1,0,0,1,
	| 1,0,0,0,1,2,0,1,0,0,0,0,0,0,0,
	| 0,0,1,0,0,0,0,0,1,0,1,0,0,1,1,
	| 0,0,0,0,2,0,0,0,2,0,0,0,0,0,1,
	| 0,0,0,0,1,1,1,0,0,0,0,1,1,0,0,
	| 0,0,0,0,0,0,0,0,0,0,1,0,0,0,0,
	| 0,0,0,0,1,0,0,0,0,0,1,1,0,0,0,
	| 1,0,0,0,0,0,0,0,0,0,0,1,0,0,0,
	| 0,0,1,0,0,1,0,0,0,0,0,0,0,0,0,
	| 0,0,0,0,0,1,0,1,0,0,0,0,1,1,0,
	| 0,0,0,1,0,1,0,1,0,0,1,0,0,1,0,
	| 0,0,1,0,0,0,0,0,0,0,0,0,0,0,0,
	| 0,0,0,0,1,0,0,0,0,0,0,2,0,1,0,
	| 0,0,0,0,0,0,0,0,1,1,1,0,0,0,1,
	| 0,0,0,0,0,0,0,1,0,0,1,1,0,0,0,
	| 0,1,0,0,1,1,0,0,0,0,0,1,1,0,0,
	| 0,0,0,0,1,2,0,0,0,0,1,1,0,0,0,
	| 0,0,0,1,0,2,0,0,1,0,1,0,0,0,0,
	| 0,0,0,0,0,0,0,0,0,0,0,0,0,0,0, |];

% SumOfsreq = 94;

nResources = 15;
mastery = [| false,false,false,true,true,true,false,false,false,false,false,false,true,true,true,
	| false,false,false,false,false,false,false,false,false,false,false,false,false,true,true,
	| false,false,false,false,false,false,false,false,false,false,false,false,false,false,true,
	| false,false,false,true,true,true,false,false,false,false,false,false,false,false,false,
	| false,false,false,false,true,true,false,false,false,false,false,false,false,false,false,
	| false,false,false,true,true,true,false,false,false,true,true,true,false,false,false,
	| false,false,false,false,false,false,false,true,true,false,false,false,false,false,false,
	| false,false,false,false,false,false,false,false,false,false,true,true,false,false,false,
	| false,false,false,false,false,false,false,false,false,false,true,true,false,false,true,
	| false,false,true,false,false,true,false,false,false,false,false,false,false,false,true,
	| true,true,true,false,false,false,false,false,false,false,false,false,true,true,true,
	| false,false,true,false,true,true,false,false,false,false,false,false,false,false,false,
	| false,false,false,false,false,false,true,true,true,false,false,false,false,true,true,
	| false,false,false,false,false,true,true,true,true,true,true,true,true,true,true,
	| false,false,false,false,false,false,false,false,true,false,false,false,false,false,false, |];

nPrecs = 68;
pred = [1,1,1,2,2,2,3,3,3,4,4,4,5,5,5,6,6,7,7,7,8,8,8,9,9,9,10,10,10,11,11,12,12,12,13,13,13,14,15,15,16,16,17,17,18,18,18,19,19,19,20,20,21,22,22,23,24,25,25,26,26,26,27,28,28,29,30,31];
succ = [2,3,4,26,12,16,13,22,8,12,5,6,18,14,22,7,8,18,13,22,9,10,19,11,14,15,20,23,15,17,25,17,19,13,20,14,30,24,25,21,19,21,18,23,27,21,24,28,20,23,29,24,31,26,28,27,31,26,28,27,29,30,31,29,30,32,32,32];

nUnrels = 181;
unpred = [2,2,2,2,2,2,2,2,2,2,2,2,3,3,3,3,3,3,4,5,5,5,5,5,5,5,5,5,5,5,5,5,5,5,6,6,7,7,7,7,7,7,7,7,7,7,7,8,8,8,8,9,9,9,9,9,9,9,10,10,10,10,10,10,10,10,10,11,11,11,11,11,11,11,11,12,12,12,12,12,13,13,13,13,13,13,13,13,13,13,13,13,14,14,14,14,14,14,14,14,14,14,14,14,14,14,14,15,15,15,15,15,15,15,15,16,16,16,16,16,17,17,17,17,17,17,17,17,18,18,18,18,18,18,18,18,18,19,19,19,19,20,20,20,20,20,20,20,20,21,21,21,21,21,21,21,21,21,22,22,22,23,23,23,23,23,23,24,24,24,24,24,24,26,27,27,27,28,29,29,30];
unsucc = [3,4,5,6,7,8,9,10,11,15,22,25,4,5,6,7,12,16,16,6,7,8,9,10,11,12,13,15,16,17,19,20,23,25,12,16,8,9,10,11,12,15,16,17,19,23,25,12,13,16,22,10,12,13,16,19,20,22,11,12,13,14,16,17,18,19,22,12,13,14,15,16,19,20,22,15,16,22,25,26,15,16,17,18,19,21,22,23,25,26,27,28,15,16,17,18,19,20,21,22,23,25,26,27,28,29,30,16,17,18,19,20,22,23,24,17,18,22,25,26,19,20,22,25,26,28,29,30,19,20,22,23,25,26,28,29,30,21,22,25,26,21,22,23,25,26,27,28,30,22,23,24,25,26,27,28,29,30,23,24,25,24,25,26,28,29,30,25,26,27,28,29,30,28,28,29,30,31,30,31,31];

USEFUL_RES = [{},
	{6,8,9,14},
	{1,4,5,6,8,9,12,14},
	{1,2,11,13,14},
	{6,7,8,9,13,14,15},
	{6,7,8,9,10,11,12,13,14},
	{1,2,11,13,14},
	{1,2,3,6,8,9,10,11,13,14},
	{1,2,4,5,6,8,9,10,11,12,13,14},
	{1,4,5,6,12},
	{6,8,9,14},
	{1,4,5,6,10,12,14},
	{10,11,12},
	{1,2,3,4,5,6,8,9,10,11,12,13,14},
	{1,4,5,6,7,10,11,12,13,14},
	{1,2,3,6,7,8,9,10,11,12,13,14,15},
	{1,2,3,4,5,6,7,9,10,11,12,13,14,15},
	{1,4,5,6,8,9,10,11,12,13,14},
	{6,8,9,14},
	{1,4,5,6,8,9,12,14},
	{6,8,9,11,14},
	{1,4,5,6,10,11,12,14},
	{1,2,4,5,6,7,10,11,12,13,14},
	{1,2,4,5,6,7,8,9,10,11,12,13,14},
	{10,11,12},
	{1,2,4,5,6,8,9,11,12,13,14},
	{1,2,3,6,7,8,9,10,11,13,14,15},
	{6,7,8,9,13,14},
	{1,4,5,6,8,9,10,11,12,14},
	{1,4,5,6,8,9,10,12,14},
	{1,4,5,6,7,8,9,10,12,13,14,15},
	{}];

POTENTIAL_ACT = [{3,4,7,8,9,10,12,14,15,16,17,18,20,22,23,24,26,27,29,30,31},
	{4,7,8,9,14,16,17,23,24,26,27},
	{8,14,16,17,27},
	{3,9,10,12,14,15,17,18,20,22,23,24,26,29,30,31},
	{3,9,10,12,14,15,17,18,20,22,23,24,26,29,30,31},
	{2,3,5,6,8,9,10,11,12,14,15,16,17,18,19,20,21,22,23,24,26,27,28,29,30,31},
	{5,6,15,16,17,23,24,27,28,31},
	{2,3,5,6,8,9,11,14,16,18,19,20,21,24,26,27,28,29,30,31},
	{2,3,5,6,8,9,11,14,16,17,18,19,20,21,24,26,27,28,29,30,31},
	{6,8,9,12,13,14,15,16,17,18,22,23,24,25,27,29,30,31},
	{4,6,7,8,9,13,14,15,16,17,18,21,22,23,24,25,26,27,29},
	{3,6,9,10,12,13,14,15,16,17,18,20,22,23,24,25,26,29,30,31},
	{4,5,6,7,8,9,14,15,16,17,18,23,24,26,27,28,31},
	{2,3,4,5,6,7,8,9,11,12,14,15,16,17,18,19,20,21,22,23,24,26,27,28,29,30,31},
	{5,16,17,27,31}];
